objective value:                                   -3
t_n_7                                               1 	(obj:-1)
t_n_466                                             1 	(obj:-1)
t_n_1090                                            1 	(obj:-1)
